ilp_joint/output/terracing_ilp.lp
Maximize
  3.7127779263274399e-04 Z_236_0_0 + 0.00114811516011573 Z_236_0_1
   + 0.0658352664631497 Z_236_0_2 + 0.791052488408641 Z_236_0_3
   + 0.041592852175461 Z_236_0_4
Subject To
 constraint1_2360: Z_236_0_0 + Z_236_0_1 + Z_236_0_2 + Z_236_0_3
   + Z_236_0_4 <= 1
 constraint2_2360: Z_236_0_0 <= 1
 constraint2_2361: Z_236_0_1 <= 1
 constraint2_2362: Z_236_0_2 <= 1
 constraint2_2363: Z_236_0_3 <= 1
Bounds
Binaries
 Z_236_0_0 Z_236_0_1 Z_236_0_2 Z_236_0_3 Z_236_0_4
End
