ilp_joint/output/terracing_ilp.sol
# Solution for model terracing_srl_ilp
# Objective value = 7.9105248840864095e-01
Z_236_0_0 0
Z_236_0_1 0
Z_236_0_2 0
Z_236_0_3 1
Z_236_0_4 0
